NAME /Users/henri/Research/solvers/instances/idol-instances/robust/collection/cbp_Subramanyam_et_al_2020/CapBud_N30_3/models/uncertain_technology_matrix/
ROWS
 N  OBJ
 L  capacity
 L  c_5350
 L  c_5351
 L  c_5352
 L  c_5353
 L  c_5354
 L  c_5355
 L  c_5356
 L  c_5357
 L  c_5358
 L  c_5359
 L  c_5360
 L  c_5361
 L  c_5362
 L  c_5363
 L  c_5364
 L  c_5365
 L  c_5366
 L  c_5367
 L  c_5368
 L  c_5369
 L  c_5370
 L  c_5371
 L  c_5372
 L  c_5373
 L  c_5374
 L  c_5375
 L  c_5376
 L  c_5377
 L  c_5378
 L  c_5379
COLUMNS
    MARKER    'MARKER'                 'INTORG'
    x_0        OBJ        -8.81796
    x_0        c_5350     1
    x_0        capacity   1.76359
    x_1        OBJ        -8.09937
    x_1        c_5351     1
    x_1        capacity   1.61987
    x_2        OBJ        -0.173363
    x_2        c_5352     1
    x_2        capacity   0.0346727
    x_3        OBJ        -3.90016
    x_3        c_5353     1
    x_3        capacity   0.780033
    x_4        OBJ        -2.51354
    x_4        c_5354     1
    x_4        capacity   0.502708
    x_5        OBJ        -3.79362
    x_5        c_5355     1
    x_5        capacity   0.758724
    x_6        OBJ        -7.08547
    x_6        c_5356     1
    x_6        capacity   1.41709
    x_7        OBJ        -5.68841
    x_7        c_5357     1
    x_7        capacity   1.13768
    x_8        OBJ        -7.78024
    x_8        c_5358     1
    x_8        capacity   1.55605
    x_9        OBJ        -5.48668
    x_9        c_5359     1
    x_9        capacity   1.09734
    x_10       OBJ        -1.94717
    x_10       c_5360     1
    x_10       capacity   0.389433
    x_11       OBJ        -8.81093
    x_11       c_5361     1
    x_11       capacity   1.76219
    x_12       OBJ        -9.54607
    x_12       c_5362     1
    x_12       capacity   1.90921
    x_13       OBJ        -1.70246
    x_13       c_5363     1
    x_13       capacity   0.340491
    x_14       OBJ        -5.82875
    x_14       c_5364     1
    x_14       capacity   1.16575
    x_15       OBJ        -0.75068
    x_15       c_5365     1
    x_15       capacity   0.150136
    x_16       OBJ        -3.50705
    x_16       c_5366     1
    x_16       capacity   0.70141
    x_17       OBJ        -2.32551
    x_17       c_5367     1
    x_17       capacity   0.465103
    x_18       OBJ        -9.18754
    x_18       c_5368     1
    x_18       capacity   1.83751
    x_19       OBJ        -5.44707
    x_19       c_5369     1
    x_19       capacity   1.08941
    x_20       OBJ        -7.12766
    x_20       c_5370     1
    x_20       capacity   1.42553
    x_21       OBJ        -4.37265
    x_21       c_5371     1
    x_21       capacity   0.874531
    x_22       OBJ        -4.57608
    x_22       c_5372     1
    x_22       capacity   0.915217
    x_23       OBJ        -4.25763
    x_23       c_5373     1
    x_23       capacity   0.851526
    x_24       OBJ        -0.266997
    x_24       c_5374     1
    x_24       capacity   0.0533994
    x_25       OBJ        -9.75185
    x_25       c_5375     1
    x_25       capacity   1.95037
    x_26       OBJ        -4.69734
    x_26       c_5376     1
    x_26       capacity   0.939467
    x_27       OBJ        -3.49166
    x_27       c_5377     1
    x_27       capacity   0.698333
    x_28       OBJ        -8.4963
    x_28       c_5378     1
    x_28       capacity   1.69926
    x_29       OBJ        -4.48736
    x_29       c_5379     1
    x_29       capacity   0.897472
    y_0        OBJ        -7.05437
    y_0        c_5350     1
    y_0        capacity   1.76359
    y_1        OBJ        -6.47949
    y_1        c_5351     1
    y_1        capacity   1.61987
    y_2        OBJ        -0.138691
    y_2        c_5352     1
    y_2        capacity   0.0346727
    y_3        OBJ        -3.12013
    y_3        c_5353     1
    y_3        capacity   0.780033
    y_4        OBJ        -2.01083
    y_4        c_5354     1
    y_4        capacity   0.502708
    y_5        OBJ        -3.0349
    y_5        c_5355     1
    y_5        capacity   0.758724
    y_6        OBJ        -5.66838
    y_6        c_5356     1
    y_6        capacity   1.41709
    y_7        OBJ        -4.55073
    y_7        c_5357     1
    y_7        capacity   1.13768
    y_8        OBJ        -6.22419
    y_8        c_5358     1
    y_8        capacity   1.55605
    y_9        OBJ        -4.38935
    y_9        c_5359     1
    y_9        capacity   1.09734
    y_10       OBJ        -1.55773
    y_10       c_5360     1
    y_10       capacity   0.389433
    y_11       OBJ        -7.04875
    y_11       c_5361     1
    y_11       capacity   1.76219
    y_12       OBJ        -7.63686
    y_12       c_5362     1
    y_12       capacity   1.90921
    y_13       OBJ        -1.36197
    y_13       c_5363     1
    y_13       capacity   0.340491
    y_14       OBJ        -4.663
    y_14       c_5364     1
    y_14       capacity   1.16575
    y_15       OBJ        -0.600544
    y_15       c_5365     1
    y_15       capacity   0.150136
    y_16       OBJ        -2.80564
    y_16       c_5366     1
    y_16       capacity   0.70141
    y_17       OBJ        -1.86041
    y_17       c_5367     1
    y_17       capacity   0.465103
    y_18       OBJ        -7.35003
    y_18       c_5368     1
    y_18       capacity   1.83751
    y_19       OBJ        -4.35766
    y_19       c_5369     1
    y_19       capacity   1.08941
    y_20       OBJ        -5.70213
    y_20       c_5370     1
    y_20       capacity   1.42553
    y_21       OBJ        -3.49812
    y_21       c_5371     1
    y_21       capacity   0.874531
    y_22       OBJ        -3.66087
    y_22       c_5372     1
    y_22       capacity   0.915217
    y_23       OBJ        -3.4061
    y_23       c_5373     1
    y_23       capacity   0.851526
    y_24       OBJ        -0.213598
    y_24       c_5374     1
    y_24       capacity   0.0533994
    y_25       OBJ        -7.80148
    y_25       c_5375     1
    y_25       capacity   1.95037
    y_26       OBJ        -3.75787
    y_26       c_5376     1
    y_26       capacity   0.939467
    y_27       OBJ        -2.79333
    y_27       c_5377     1
    y_27       capacity   0.698333
    y_28       OBJ        -6.79704
    y_28       c_5378     1
    y_28       capacity   1.69926
    y_29       OBJ        -3.58989
    y_29       c_5379     1
    y_29       capacity   0.897472
    MARKER    'MARKER'                 'INTEND'
RHS
    RHS       capacity   76.9588
    RHS       c_5350     1
    RHS       c_5351     1
    RHS       c_5352     1
    RHS       c_5353     1
    RHS       c_5354     1
    RHS       c_5355     1
    RHS       c_5356     1
    RHS       c_5357     1
    RHS       c_5358     1
    RHS       c_5359     1
    RHS       c_5360     1
    RHS       c_5361     1
    RHS       c_5362     1
    RHS       c_5363     1
    RHS       c_5364     1
    RHS       c_5365     1
    RHS       c_5366     1
    RHS       c_5367     1
    RHS       c_5368     1
    RHS       c_5369     1
    RHS       c_5370     1
    RHS       c_5371     1
    RHS       c_5372     1
    RHS       c_5373     1
    RHS       c_5374     1
    RHS       c_5375     1
    RHS       c_5376     1
    RHS       c_5377     1
    RHS       c_5378     1
    RHS       c_5379     1
BOUNDS
 LI BND       x_0        0
 UI BND       x_0        1
 LI BND       x_1        0
 UI BND       x_1        1
 LI BND       x_2        0
 UI BND       x_2        1
 LI BND       x_3        0
 UI BND       x_3        1
 LI BND       x_4        0
 UI BND       x_4        1
 LI BND       x_5        0
 UI BND       x_5        1
 LI BND       x_6        0
 UI BND       x_6        1
 LI BND       x_7        0
 UI BND       x_7        1
 LI BND       x_8        0
 UI BND       x_8        1
 LI BND       x_9        0
 UI BND       x_9        1
 LI BND       x_10       0
 UI BND       x_10       1
 LI BND       x_11       0
 UI BND       x_11       1
 LI BND       x_12       0
 UI BND       x_12       1
 LI BND       x_13       0
 UI BND       x_13       1
 LI BND       x_14       0
 UI BND       x_14       1
 LI BND       x_15       0
 UI BND       x_15       1
 LI BND       x_16       0
 UI BND       x_16       1
 LI BND       x_17       0
 UI BND       x_17       1
 LI BND       x_18       0
 UI BND       x_18       1
 LI BND       x_19       0
 UI BND       x_19       1
 LI BND       x_20       0
 UI BND       x_20       1
 LI BND       x_21       0
 UI BND       x_21       1
 LI BND       x_22       0
 UI BND       x_22       1
 LI BND       x_23       0
 UI BND       x_23       1
 LI BND       x_24       0
 UI BND       x_24       1
 LI BND       x_25       0
 UI BND       x_25       1
 LI BND       x_26       0
 UI BND       x_26       1
 LI BND       x_27       0
 UI BND       x_27       1
 LI BND       x_28       0
 UI BND       x_28       1
 LI BND       x_29       0
 UI BND       x_29       1
 LI BND       y_0        0
 UI BND       y_0        1
 LI BND       y_1        0
 UI BND       y_1        1
 LI BND       y_2        0
 UI BND       y_2        1
 LI BND       y_3        0
 UI BND       y_3        1
 LI BND       y_4        0
 UI BND       y_4        1
 LI BND       y_5        0
 UI BND       y_5        1
 LI BND       y_6        0
 UI BND       y_6        1
 LI BND       y_7        0
 UI BND       y_7        1
 LI BND       y_8        0
 UI BND       y_8        1
 LI BND       y_9        0
 UI BND       y_9        1
 LI BND       y_10       0
 UI BND       y_10       1
 LI BND       y_11       0
 UI BND       y_11       1
 LI BND       y_12       0
 UI BND       y_12       1
 LI BND       y_13       0
 UI BND       y_13       1
 LI BND       y_14       0
 UI BND       y_14       1
 LI BND       y_15       0
 UI BND       y_15       1
 LI BND       y_16       0
 UI BND       y_16       1
 LI BND       y_17       0
 UI BND       y_17       1
 LI BND       y_18       0
 UI BND       y_18       1
 LI BND       y_19       0
 UI BND       y_19       1
 LI BND       y_20       0
 UI BND       y_20       1
 LI BND       y_21       0
 UI BND       y_21       1
 LI BND       y_22       0
 UI BND       y_22       1
 LI BND       y_23       0
 UI BND       y_23       1
 LI BND       y_24       0
 UI BND       y_24       1
 LI BND       y_25       0
 UI BND       y_25       1
 LI BND       y_26       0
 UI BND       y_26       1
 LI BND       y_27       0
 UI BND       y_27       1
 LI BND       y_28       0
 UI BND       y_28       1
 LI BND       y_29       0
 UI BND       y_29       1
ENDATA
